1743.66
0 14 91 5 17 8 11 10 1 9 81 3 12 13 0
0 19 90 20 35 29 24 16 15 22 23 25 21 26 28 27 0
0 41 39 34 33 30 32 31 36 44 38 43 42 37 0
0 57 56 55 54 50 51 64 49 47 82 7 45 60 52 53 0
0 62 63 66 65 68 67 40 59 58 0
0 73 75 74 72 76 77 80 79 78 71 70 83 84 99 96 6 0
0 69 88 18 86 85 93 92 87 95 94 0
0 46 48 4 2 61 100 98 97 89 0
